[2026-03-24T00:33:39.863Z] Pipeline "set_set_set_s004_g010" → 2026_03_24_00_33_39_set_set_set_s004_g010_max.sol
Set parameter WLSAccessID
Set parameter WLSSecret
Set parameter LicenseID to value 2792458
Set parameter LogFile to value "gurobi.log"
Using license file /root/gurobi.lic
Academic license 2792458 - for non-commercial use only - registered to an___@studenti.unipg.it

Gurobi Optimizer version 13.0.1 build v13.0.1rc0 (linux64 - "Ubuntu 24.04.4 LTS")
Copyright (c) 2026, Gurobi Optimization, LLC

Warning: Duplicate section found (read 'binary') - Is a variable name equal to an LP file format keyword?
Warning: Duplicate section found (read 'binary') - Is a variable name equal to an LP file format keyword?
Warning: Duplicate section found (read 'binary') - Is a variable name equal to an LP file format keyword?
Warning: Duplicate section found (read 'binary') - Is a variable name equal to an LP file format keyword?
Warning: Duplicate section found (read 'binary') - Is a variable name equal to an LP file format keyword?
Warning: Duplicate section found (read 'binary') - Is a variable name equal to an LP file format keyword?
Warning: Duplicate section found (read 'binary') - Is a variable name equal to an LP file format keyword?
Warning: Duplicate section found (read 'binary') - Is a variable name equal to an LP file format keyword?
Warning: Duplicate section found (read 'binary') - Is a variable name equal to an LP file format keyword?
Warning: Duplicate section found (read 'binary') - Is a variable name equal to an LP file format keyword?
Warning: Further warnings of this type will be omitted.
Read LP format model from file /root/bgw/data/uploads/2026_03_24_00_33_39_set_set_set_s004_g010_max.lp
Reading time = 0.00 seconds
: 490 rows, 100 columns, 1268 nonzeros

Using Gurobi shared library /opt/gurobi1301/linux64/lib/libgurobi.so.13.0.1

CPU model: AMD EPYC-Genoa Processor, instruction set [SSE2|AVX|AVX2|AVX512]
Thread count: 16 physical cores, 16 logical processors, using up to 16 threads

Academic license 2792458 - for non-commercial use only - registered to an___@studenti.unipg.it
Optimize a model with 490 rows, 100 columns and 1268 nonzeros (Max)
Model fingerprint: 0xd939ce74
Model has 21 linear objective coefficients
Variable types: 30 continuous, 70 integer (70 binary)
Coefficient statistics:
  Matrix range     [1e+00, 1e+01]
  Objective range  [1e+00, 1e+00]
  Bounds range     [1e+00, 1e+00]
  RHS range        [1e+00, 1e+01]

Found heuristic solution: objective 21.0000000
Presolve removed 275 rows and 36 columns
Presolve time: 0.00s
Presolved: 215 rows, 64 columns, 699 nonzeros
Variable types: 0 continuous, 64 integer (55 binary)
Found heuristic solution: objective 36.0000000

Root relaxation: objective 9.900000e+01, 71 iterations, 0.00 seconds (0.00 work units)

    Nodes    |    Current Node    |     Objective Bounds      |     Work
 Expl Unexpl |  Obj  Depth IntInf | Incumbent    BestBd   Gap | It/Node Time

     0     0   99.00000    0   40   36.00000   99.00000   175%     -    0s
H    0     0                      37.0000000   99.00000   168%     -    0s
H    0     0                      39.0000000   99.00000   154%     -    0s
H    0     0                      42.0000000   99.00000   136%     -    0s
H    0     0                      46.0000000   99.00000   115%     -    0s
H    0     0                      49.0000000   99.00000   102%     -    0s
     0     0   99.00000    0   43   49.00000   99.00000   102%     -    0s
     0     0   99.00000    0   43   49.00000   99.00000   102%     -    0s
     0     0   99.00000    0   43   49.00000   99.00000   102%     -    0s
H    0     0                      50.0000000   99.00000  98.0%     -    0s
     0     0   99.00000    0   43   50.00000   99.00000  98.0%     -    0s
     0     0   99.00000    0   42   50.00000   99.00000  98.0%     -    0s
     0     0   99.00000    0   42   50.00000   99.00000  98.0%     -    0s
     0     0   97.28571    0   42   50.00000   97.28571  94.6%     -    0s
     0     0   97.28571    0   42   50.00000   97.28571  94.6%     -    0s
     0     0   97.28571    0   42   50.00000   97.28571  94.6%     -    0s
     0     0   97.28571    0   40   50.00000   97.28571  94.6%     -    0s
H    0     2                      51.0000000   97.28571  90.8%     -    0s
     0     2   97.28571    0   38   51.00000   97.28571  90.8%     -    0s
H  295   198                      53.0000000   96.28571  81.7%  10.8    0s

Cutting planes:
  Gomory: 2
  Cover: 80
  MIR: 1
  Inf proof: 97

Explored 15109 nodes (187616 simplex iterations) in 0.62 seconds (0.61 work units)
Thread count was 16 (of 16 available processors)

Solution count 10: 53 51 50 ... 21

Optimal solution found (tolerance 1.00e-04)
Best objective 5.300000000000e+01, best bound 5.300000000000e+01, gap 0.0000%

Wrote result file '/root/bgw/data/results/2026_03_24_00_33_39_set_set_set_s004_g010_max.sol'

